* ENCODING=ISO-8859-1
NAME          CPLEX
ROWS
 N  obj1    
 G  c1      
 G  c2      
 G  c3      
 G  c4      
 G  c5      
 G  c6      
 G  c7      
 G  c8      
 G  c9      
 G  c10     
 G  c11     
 G  c12     
 G  c13     
 G  c14     
 G  c15     
 G  c16     
 G  c17     
 G  c18     
 G  c19     
 G  c20     
 G  c21     
 G  c22     
 G  c23     
 G  c24     
 G  c25     
 G  c26     
 G  c27     
 G  c28     
 G  c29     
 G  c30     
 G  c31     
 G  c32     
 G  c33     
 G  c34     
 G  c35     
 G  c36     
 G  c37     
 G  c38     
 G  c39     
 G  c40     
 G  c41     
 G  c42     
 G  c43     
 G  c44     
 G  c45     
 G  c46     
 G  c47     
 G  c48     
 G  c49     
 G  c50     
COLUMNS
    MARK0000  'MARKER'                 'INTORG'
    x1        obj1                            1
    x1        c2                            861
    x1        c26                           347
    x1        c27                           490
    x1        c32                           531
    x1        c49                           810
    x2        obj1                            1
    x2        c9                            194
    x2        c12                           564
    x2        c19                           713
    x2        c22                           422
    x2        c23                           282
    x2        c39                           580
    x3        obj1                            1
    x3        c5                            766
    x3        c26                           183
    x3        c28                           408
    x3        c42                           624
    x3        c45                           158
    x4        obj1                            1
    x4        c5                            225
    x4        c9                            179
    x4        c24                           230
    x4        c28                           724
    x4        c32                           597
    x4        c36                           548
    x4        c41                           187
    x4        c42                           814
    x5        obj1                            1
    x5        c15                           541
    x5        c34                           467
    x5        c40                           125
    x6        obj1                            1
    x6        c4                            347
    x6        c12                           665
    x6        c13                           634
    x6        c18                           259
    x6        c23                           639
    x6        c43                           489
    x7        obj1                            1
    x7        c7                            176
    x7        c16                           562
    x7        c42                           880
    x8        obj1                            1
    x8        c5                            605
    x8        c7                            347
    x8        c17                           140
    x8        c22                           760
    x8        c25                           497
    x8        c31                           725
    x8        c35                           405
    x8        c40                           603
    x8        c47                           838
    x8        c48                           743
    x9        obj1                            1
    x9        c21                           721
    x9        c26                           106
    x9        c30                           775
    x9        c36                           255
    x9        c39                           124
    x10       obj1                            1
    x10       c5                            391
    x10       c8                            749
    x10       c9                            588
    x10       c16                           976
    x10       c18                           294
    x10       c20                           690
    x10       c47                           485
    x10       c48                           235
    x11       obj1                            1
    x11       c2                            854
    x11       c9                            135
    x11       c11                           994
    x11       c25                           852
    x11       c30                           517
    x11       c34                           690
    x12       obj1                            1
    x12       c2                            551
    x12       c15                           185
    x12       c22                           709
    x12       c23                           942
    x12       c25                           499
    x12       c29                           674
    x12       c46                           770
    x13       obj1                            1
    x13       c1                            859
    x13       c15                           413
    x13       c21                           766
    x13       c22                           127
    x13       c46                           336
    x14       obj1                            1
    x14       c26                           298
    x14       c29                           689
    x14       c36                           598
    x14       c40                           253
    x14       c41                           938
    x14       c49                           874
    x15       obj1                            1
    x15       c2                            273
    x15       c14                           453
    x15       c37                           736
    x15       c40                           184
    x15       c45                           913
    x15       c48                           803
    x16       obj1                            1
    x16       c9                            568
    x16       c12                           952
    x16       c22                           291
    x16       c29                           119
    x16       c34                           498
    x16       c43                           998
    x16       c49                           207
    x17       obj1                            1
    x17       c3                            252
    x17       c16                           552
    x17       c33                           112
    x17       c34                           993
    x18       obj1                            1
    x18       c13                           879
    x18       c22                           504
    x18       c24                           524
    x18       c30                           284
    x18       c32                           283
    x18       c39                           379
    x18       c41                           559
    x18       c46                           630
    x19       obj1                            1
    x19       c1                            197
    x19       c4                            964
    x19       c10                           573
    x19       c47                           377
    x20       obj1                            1
    x20       c7                            675
    x20       c19                           261
    x20       c21                           613
    x20       c28                           529
    x20       c35                           342
    x20       c37                           949
    x20       c46                           647
    x21       obj1                            1
    x21       c20                           483
    x21       c29                           912
    x21       c38                           928
    x22       obj1                            1
    x22       c6                            571
    x23       obj1                            1
    x23       c2                            420
    x23       c4                            403
    x23       c12                           704
    x23       c35                           535
    x24       obj1                            1
    x24       c11                           834
    x24       c27                           204
    x24       c30                           683
    x24       c42                           437
    x25       obj1                            1
    x25       c1                            925
    x25       c3                            575
    x25       c10                           239
    x25       c14                           733
    x25       c24                           637
    x25       c49                           668
    x26       obj1                            1
    x26       c1                            737
    x26       c9                            163
    x26       c11                           781
    x26       c28                           148
    x26       c32                           113
    x26       c48                           302
    x26       c50                           797
    x27       obj1                            1
    x27       c6                            675
    x27       c32                           974
    x27       c48                           517
    x28       obj1                            1
    x28       c2                            980
    x28       c3                            619
    x28       c17                           869
    x28       c29                           979
    x28       c31                           631
    x28       c32                           968
    x28       c36                           462
    x28       c47                           609
    x29       obj1                            1
    x29       c13                           349
    x29       c33                           478
    x29       c41                           814
    x29       c48                           535
    x30       obj1                            1
    x30       c13                           966
    x30       c19                           445
    x30       c31                           552
    x30       c34                           835
    x30       c36                           875
    x30       c44                           518
    x30       c50                           205
    x31       obj1                            1
    x31       c25                           223
    x31       c29                           429
    x31       c32                           866
    x31       c39                           436
    x31       c45                           932
    x32       obj1                            1
    x32       c1                            721
    x32       c8                            452
    x32       c14                           125
    x32       c15                           946
    x32       c20                           891
    x32       c25                           617
    x33       obj1                            1
    x33       c13                           550
    x33       c22                           245
    x33       c23                           981
    x34       obj1                            1
    x34       c1                            974
    x34       c16                           680
    x34       c17                           354
    x34       c28                           736
    x35       obj1                            1
    x35       c11                           428
    x35       c23                           488
    x35       c33                           462
    x35       c34                           617
    x35       c35                           195
    x36       obj1                            1
    x36       c28                           891
    x37       obj1                            1
    x37       c12                           125
    x37       c17                           227
    x37       c45                           651
    x37       c49                           180
    x38       obj1                            1
    x38       c4                            780
    x38       c6                            528
    x38       c14                           446
    x38       c38                           838
    x38       c44                           606
    x39       obj1                            1
    x39       c21                           319
    x39       c27                           568
    x39       c38                           944
    x40       obj1                            1
    x40       c4                            486
    x40       c5                            463
    x40       c8                            645
    x40       c15                           640
    x40       c25                           879
    x40       c40                           676
    x40       c45                           880
    x40       c49                           217
    x41       obj1                            1
    x41       c7                            319
    x41       c10                           359
    x41       c17                           397
    x42       obj1                            1
    x42       c2                            554
    x42       c6                            673
    x42       c10                           673
    x42       c18                           433
    x42       c35                           450
    x43       obj1                            1
    x43       c9                            905
    x43       c11                           711
    x43       c24                           375
    x43       c25                           527
    x44       obj1                            1
    x44       c4                            302
    x44       c16                           387
    x44       c40                           129
    x44       c43                           481
    x44       c44                           157
    x44       c46                           747
    x45       obj1                            1
    x45       c7                            790
    x45       c11                           445
    x45       c36                           596
    x45       c39                           810
    x45       c41                           550
    x45       c47                           524
    x46       obj1                            1
    x46       c5                            878
    x46       c6                            255
    x46       c10                           627
    x46       c12                           920
    x46       c21                           271
    x46       c23                           812
    x46       c42                           577
    x47       obj1                            1
    x47       c3                            643
    x47       c21                           423
    x47       c40                           502
    x47       c49                           950
    x48       obj1                            1
    x48       c7                            730
    x48       c24                           215
    x48       c37                           583
    x49       obj1                            1
    x49       c28                           548
    x49       c43                           765
    x50       obj1                            1
    x50       c4                            628
    x50       c6                            310
    x50       c11                           290
    x50       c23                           360
    x50       c35                           547
    x50       c37                           192
    x50       c50                           777
    MARK0001  'MARKER'                 'INTEND'
RHS
    rhs       c1                           2207
    rhs       c2                           2247
    rhs       c3                           1045
    rhs       c4                           1955
    rhs       c5                           1664
    rhs       c6                           1506
    rhs       c7                           1519
    rhs       c8                            923
    rhs       c9                           1366
    rhs       c10                          1236
    rhs       c11                          2242
    rhs       c12                          1965
    rhs       c13                          1689
    rhs       c14                           879
    rhs       c15                          1363
    rhs       c16                          1579
    rhs       c17                           994
    rhs       c18                           493
    rhs       c19                           710
    rhs       c20                          1032
    rhs       c21                          1557
    rhs       c22                          1529
    rhs       c23                          2252
    rhs       c24                           991
    rhs       c25                          2047
    rhs       c26                           467
    rhs       c27                           631
    rhs       c28                          1992
    rhs       c29                          1901
    rhs       c30                          1130
    rhs       c31                           954
    rhs       c32                          2166
    rhs       c33                           526
    rhs       c34                          2050
    rhs       c35                          1237
    rhs       c36                          1667
    rhs       c37                          1230
    rhs       c38                          1355
    rhs       c39                          1165
    rhs       c40                          1236
    rhs       c41                          1524
    rhs       c42                          1666
    rhs       c43                          1367
    rhs       c44                           641
    rhs       c45                          1767
    rhs       c46                          1565
    rhs       c47                          1417
    rhs       c48                          1568
    rhs       c49                          1953
    rhs       c50                           890
BOUNDS
 LI bnd       x1        0
 LI bnd       x2        0
 LI bnd       x3        0
 LI bnd       x4        0
 LI bnd       x5        0
 LI bnd       x6        0
 LI bnd       x7        0
 LI bnd       x8        0
 LI bnd       x9        0
 LI bnd       x10       0
 LI bnd       x11       0
 LI bnd       x12       0
 LI bnd       x13       0
 LI bnd       x14       0
 LI bnd       x15       0
 LI bnd       x16       0
 LI bnd       x17       0
 LI bnd       x18       0
 LI bnd       x19       0
 LI bnd       x20       0
 LI bnd       x21       0
 LI bnd       x22       0
 LI bnd       x23       0
 LI bnd       x24       0
 LI bnd       x25       0
 LI bnd       x26       0
 LI bnd       x27       0
 LI bnd       x28       0
 LI bnd       x29       0
 LI bnd       x30       0
 LI bnd       x31       0
 LI bnd       x32       0
 LI bnd       x33       0
 LI bnd       x34       0
 LI bnd       x35       0
 LI bnd       x36       0
 LI bnd       x37       0
 LI bnd       x38       0
 LI bnd       x39       0
 LI bnd       x40       0
 LI bnd       x41       0
 LI bnd       x42       0
 LI bnd       x43       0
 LI bnd       x44       0
 LI bnd       x45       0
 LI bnd       x46       0
 LI bnd       x47       0
 LI bnd       x48       0
 LI bnd       x49       0
 LI bnd       x50       0
ENDATA
